Gurobi Optimizer version 9.1.2 build v9.1.2rc0 (linux64)
Thread count: 36 physical cores, 72 logical processors, using up to 32 threads
Optimize a model with 12 rows, 57 columns and 590 nonzeros
Model fingerprint: 0xf32eec78
Model has 47 quadratic constraints
Coefficient statistics:
  Matrix range     [2e-05, 3e+00]
  QMatrix range    [1e+00, 1e+00]
  QLMatrix range   [1e+00, 1e+00]
  Objective range  [8e-03, 7e-01]
  Bounds range     [1e+00, 1e+00]
  RHS range        [1e+00, 1e+00]
Presolve removed 9 rows and 0 columns

Continuous model is non-convex -- solving as a MIP.

Presolve removed 9 rows and 0 columns
Presolve time: 0.00s
Presolved: 189 rows, 57 columns, 443 nonzeros
Presolved model has 47 bilinear constraint(s)
Variable types: 57 continuous, 0 integer (0 binary)

Root relaxation: objective -1.743721e+00, 44 iterations, 0.00 seconds

    Nodes    |    Current Node    |     Objective Bounds      |     Work
 Expl Unexpl |  Obj  Depth IntInf | Incumbent    BestBd   Gap | It/Node Time

     0     0   -1.74372    0   38          -   -1.74372      -     -    0s
H    0     0                       0.6147548   -1.74372   384%     -    0s
     0     0   -1.64739    0    1    0.61475   -1.64739   368%     -    0s
H    0     0                      -1.6450460   -1.64739  0.14%     -    0s
     0     0     cutoff    0        -1.64505   -1.64505  0.00%     -    0s

Cutting planes:
  RLT: 25
  BQP: 3

Explored 1 nodes (76 simplex iterations) in 0.01 seconds
Thread count was 32 (of 72 available processors)

Solution count 2: -1.64505 0.614755 
No other solutions better than -1.64505

Optimal solution found (tolerance 1.00e-04)
Best objective -1.645045978473e+00, best bound -1.645045978473e+00, gap 0.0000%

User-callback calls 78, time in user-callback 0.00 sec
Gurobi Optimizer version 9.1.2 build v9.1.2rc0 (linux64)
Thread count: 36 physical cores, 72 logical processors, using up to 32 threads
Optimize a model with 60 rows, 300 columns and 15500 nonzeros
Model fingerprint: 0xf178567b
Model has 250 quadratic constraints
Coefficient statistics:
  Matrix range     [1e-06, 4e+00]
  QMatrix range    [1e+00, 1e+00]
  QLMatrix range   [1e+00, 1e+00]
  Objective range  [4e-04, 1e+00]
  Bounds range     [1e+00, 1e+00]
  RHS range        [1e+00, 1e+00]
Presolve removed 11 rows and 0 columns

Continuous model is non-convex -- solving as a MIP.

Presolve removed 11 rows and 0 columns
Presolve time: 0.01s
Presolved: 1049 rows, 300 columns, 14162 nonzeros
Presolved model has 250 bilinear constraint(s)
Variable types: 300 continuous, 0 integer (0 binary)

Root relaxation: objective -2.210270e+01, 392 iterations, 0.02 seconds

    Nodes    |    Current Node    |     Objective Bounds      |     Work
 Expl Unexpl |  Obj  Depth IntInf | Incumbent    BestBd   Gap | It/Node Time

     0     0  -22.10270    0  208          -  -22.10270      -     -    0s
H    0     0                      -2.4010196  -22.10270   821%     -    0s
     0     0  -19.09736    0  203   -2.40102  -19.09736   695%     -    0s
     0     0  -18.76849    0  211   -2.40102  -18.76849   682%     -    0s
H    0     0                      -7.0014247  -18.76849   168%     -    0s
     0     0  -18.73119    0  211   -7.00142  -18.73119   168%     -    0s
     0     0  -18.57347    0  211   -7.00142  -18.57347   165%     -    0s
H    0     0                      -7.5476087  -18.57347   146%     -    0s
     0     0  -18.57157    0  202   -7.54761  -18.57157   146%     -    0s
     0     0  -18.55938    0  211   -7.54761  -18.55938   146%     -    0s
     0     0  -18.55897    0  195   -7.54761  -18.55897   146%     -    0s
     0     0  -18.55766    0  211   -7.54761  -18.55766   146%     -    0s
H    0     0                      -8.2254320  -18.55766   126%     -    0s
     0     0  -18.55766    0  211   -8.22543  -18.55766   126%     -    0s
H    0     0                     -12.9149472  -18.55766  43.7%     -    0s
H    0     0                     -13.2888168  -18.55766  39.6%     -    0s
H    0     0                     -13.4568408  -18.55766  37.9%     -    0s
     0     2  -18.55766    0  211  -13.45684  -18.55766  37.9%     -    0s
* 1439  1389              77     -14.9026081  -17.44812  17.1%  73.4    1s
* 2147  1724             116     -15.0739388  -17.34472  15.1%  68.3    2s
H 2978  1430                     -15.0739388  -17.23818  14.4%  64.7    2s
* 4896  1715              91     -15.0754414  -17.23818  14.3%  69.8    4s
* 4897  1645              91     -15.0754486  -17.23818  14.3%  69.8    4s
* 5439  1750              69     -15.0776058  -17.23818  14.3%  69.3    4s
* 5564  1699              69     -15.0776077  -17.23818  14.3%  69.2    4s
  6083  1906  -15.15214   35  124  -15.07761  -17.23818  14.3%  69.1    5s
* 6774  2082             100     -15.4097938  -17.23818  11.9%  67.4    5s
* 6794  2082              66     -16.0160282  -17.23818  7.63%  67.3    5s
* 6795  2082              67     -16.0160335  -17.23818  7.63%  67.2    5s
* 6796  2082              67     -16.0160338  -17.23818  7.63%  67.2    5s
*11801  1834              64     -16.0183320  -16.93429  5.72%  66.1    6s
*11893  1834              88     -16.0186230  -16.93429  5.72%  65.8    6s
*11894  1834              88     -16.0186232  -16.93429  5.72%  65.8    6s
*11895  1834              87     -16.0186237  -16.93429  5.72%  65.8    6s
*11896  1834              86     -16.0186243  -16.93429  5.72%  65.8    6s
*12165  1793             110     -16.0192125  -16.85757  5.23%  65.4    7s
*12169  1793             113     -16.0194524  -16.85757  5.23%  65.3    7s
*12170  1793             113     -16.0194533  -16.85757  5.23%  65.3    7s
*12199  1793              67     -16.0226194  -16.83785  5.09%  65.3    7s
*12200  1793              67     -16.0226261  -16.83785  5.09%  65.3    7s
*12201  1793              66     -16.0239259  -16.83785  5.08%  65.3    7s
*12202  1793              65     -16.0240480  -16.83785  5.08%  65.3    7s
*12474  1793             102     -16.0478236  -16.82759  4.86%  65.2    7s
*12476  1793             103     -16.0478308  -16.82759  4.86%  65.2    7s
*12480  1793             106     -16.0478310  -16.82759  4.86%  65.2    7s
*12543  1793              76     -16.0562448  -16.82759  4.80%  65.0    7s
*13616  1632              72     -16.0960083  -16.76323  4.15%  64.9    7s
*15657  1551              63     -16.0963930  -16.40267  1.90%  64.6    8s
*15659  1551              64     -16.0964141  -16.40267  1.90%  64.6    9s
*15662  1551              65     -16.0964141  -16.40267  1.90%  64.6    9s
*16305  1845              90     -16.0997792  -16.35716  1.60%  63.7    9s
*16307  1845              91     -16.0998757  -16.35716  1.60%  63.7    9s
*16310  1845              90     -16.1000083  -16.35716  1.60%  63.7    9s
*16312  1845              91     -16.1001202  -16.35716  1.60%  63.7    9s
*16314  1845              92     -16.1001204  -16.35716  1.60%  63.7    9s
*16315  1845              92     -16.1001217  -16.35716  1.60%  63.7    9s
*16707  1845              64     -16.1127491  -16.32837  1.34%  63.0    9s
*16789  1845              78     -16.1163137  -16.32837  1.32%  62.8    9s
*18196  1814              79     -16.1167419  -16.24766  0.81%  61.2    9s
*18200  1814              80     -16.1167587  -16.24766  0.81%  61.2    9s
*18580  1814              71     -16.1168207  -16.24766  0.81%  60.8    9s
*18582  1814              69     -16.1168658  -16.24766  0.81%  60.8    9s
*19040  2266              65     -16.1418954  -16.24563  0.64%  59.9    9s
*19041  2266              65     -16.1418958  -16.24563  0.64%  59.9    9s
*19382  2266              67     -16.1419135  -16.24563  0.64%  59.2    9s
*19384  2266              68     -16.1419175  -16.24563  0.64%  59.2    9s
 20021   935     cutoff   40       -16.14192  -16.22253  0.50%  58.2   10s
*21707   353              66     -16.1419855  -16.16257  0.13%  55.5   10s
*22459   353              67     -16.1419941  -16.15235  0.06%  54.0   10s
*22462   353              67     -16.1420551  -16.15235  0.06%  54.0   10s
*22710   225              67     -16.1421188  -16.15006  0.05%  53.5   10s
*22845   225              67     -16.1421466  -16.14584  0.02%  53.3   10s
*22878   225              66     -16.1421554  -16.14521  0.02%  53.2   10s
*22897   225              68     -16.1421584  -16.14521  0.02%  53.1   10s
*23141   225              70     -16.1421632  -16.14418  0.01%  52.6   10s
*23156   225              70     -16.1421666  -16.14418  0.01%  52.6   10s

Explored 23937 nodes (1221291 simplex iterations) in 10.45 seconds
Thread count was 32 (of 72 available processors)

Solution count 10: -16.1422 -16.1422 -16.1422 ... -16.1419

Optimal solution found (tolerance 1.00e-04)
Best objective -1.614216655566e+01, best bound -1.614296809234e+01, gap 0.0050%

User-callback calls 49333, time in user-callback 0.01 sec



objective value: -16.142166555657557
objective bound: -16.142968092344773
x_opt: [0.0, 1.0, 1.0, 0.0, 0.0, 0.0, 1.0, 1.0, 0.0, 0.0, 0.296760971424073, 0.45829906928281416, 0.0, 1.0, 1.0, 1.0, 0.0, 1.0, 0.0, 0.0, 0.13287001373483492, 1.0, 1.0, 1.0, 0.0, 1.0, 1.0, 1.0, 0.0, 0.9132752596372452, 1.0, 0.7777464682155165, 0.0, 0.15110229353174495, 1.0, 1.0, 1.0, 1.0, 0.41226687558820385, 1.0, 0.8412183501064275, 0.0, 1.0, 0.0, 0.0, 0.5598642641850903, 0.17848682733055574, 0.006254521000822085, 0.0, 1.0]
GUROBI solution time: 10.447882890701294

